JOB = anon_enum(5);
TASK = anon_enum(10);

d = [| 11, 14, 25, 23, 46, 15, 10, 23, 13, 15 
     | 23, 42, 7, 10, 12, 13, 25, 33, 9, 19
     | 44, 14, 4, 14, 14, 46, 29, 20, 16, 9 
     | 10, 41, 10, 16, 8, 4, 9, 10, 15, 29
     | 27, 13, 22, 12, 10, 19, 11, 19, 33, 45 |];


